c defined variables: 29 30 31 32 33 34 35 36 37 38 39 40 41 42 43 44 45 46 47 48 49 50 51 52 53 54 55 56 57 58 59 60 61 62 63 64 65 66 67 68 69 70 71 72 73 74 75 78 79 80 81 82 83 84 85 86 87 88 89 90 91 92 93 94 95 96 97 98 99 100 101 102 103 104 105 106 107 108 109 110 111 112 113 114 115 116 117 118 119 120 121 122 124 125 126 127 128 129 130 131 132 133 134 135 136 137 138 139 140 141 142 143 144 145 146 147 148 149 150 151 152 153 154 155 156 157 158 159 160 161 162 163 164 165 166 167 168 169 170 171 172 173 174 175 176 177 178 179 180 181 182 183 184 185 186 187 188 189 190 191 192 193 194 195 196 197 198 199 200 201 202 203 204 
p cnf 901 1374
a 1 3 4 5 6 7 8 9 10 11 12 13 14 15 16 17 18 19 20 21 22 23 24 25 26 0
e 76 77 123 29 30 31 32 33 34 35 36 37 38 39 40 41 42 43 44 45 46 47 48 49 50 51 52 53 54 55 56 57 58 59 60 61 62 63 64 65 66 67 68 69 70 71 72 73 74 75 78 79 80 81 82 83 84 85 86 87 88 89 90 91 92 93 94 95 96 97 98 99 100 101 102 103 104 105 106 107 108 109 110 111 112 113 114 115 116 117 118 119 120 121 122 124 125 126 127 128 129 130 131 132 133 134 135 136 137 138 139 140 141 142 143 144 145 146 147 148 149 150 151 152 153 154 155 156 157 158 159 160 161 162 163 164 165 166 167 168 169 170 171 172 173 174 175 176 177 178 179 180 181 182 183 184 185 186 187 188 189 190 191 192 193 194 195 196 197 198 199 200 201 202 203 204 735 736 737 738 739 740 741 742 743 744 745 746 747 748 749 750 751 752 753 754 755 756 757 758 759 760 761 762 763 764 765 766 767 768 769 770 771 772 773 774 775 776 777 778 779 780 781 782 783 784 785 786 787 788 789 790 791 792 793 794 795 796 797 798 799 800 801 802 803 804 805 806 807 808 809 810 811 812 813 814 815 816 817 818 819 820 821 822 823 824 825 826 827 828 829 830 831 832 833 834 835 836 837 838 839 840 841 842 843 844 845 846 847 848 849 850 851 852 853 854 855 856 857 858 859 860 861 862 863 864 865 866 867 868 869 870 871 872 873 874 875 876 877 878 879 880 881 882 883 884 885 886 887 888 889 890 891 892 893 894 895 896 897 898 899 900 901 0
d 2 1 3 4 5 6 7 8 9 10 11 12 13 14 0
d 27 3 4 5 6 7 8 9 10 11 12 13 14 0
d 28 15 16 17 18 19 20 21 22 23 24 25 26 0
736 -29 0
-736 29 0
737 -30 0
-737 30 0
738 -31 0
-738 31 0
739 -32 0
-739 32 0
740 -33 0
-740 33 0
741 -34 0
-741 34 0
742 -35 0
-742 35 0
743 -36 0
-743 36 0
744 -37 0
-744 37 0
745 -38 0
-745 38 0
746 -39 0
-746 39 0
747 -40 0
-747 40 0
748 -41 0
-748 41 0
749 -42 0
-749 42 0
750 -43 0
-750 43 0
751 -44 0
-751 44 0
752 -45 0
-752 45 0
753 -46 0
-753 46 0
754 -47 0
-754 47 0
755 -48 0
-755 48 0
756 -49 0
-756 49 0
757 -50 0
-757 50 0
758 -51 0
-758 51 0
759 -52 0
-759 52 0
760 -53 0
-760 53 0
761 -54 0
-761 54 0
762 -55 0
-762 55 0
763 -56 0
-763 56 0
764 -57 0
-764 57 0
765 -58 0
-765 58 0
766 -59 0
-766 59 0
767 -60 0
-767 60 0
768 -61 0
-768 61 0
769 -62 0
-769 62 0
770 -63 0
-770 63 0
771 -64 0
-771 64 0
772 -65 0
-772 65 0
773 -66 0
-773 66 0
774 -67 0
-774 67 0
775 -68 0
-775 68 0
776 -69 0
-776 69 0
777 -70 0
-777 70 0
778 -71 0
-778 71 0
779 -72 0
-779 72 0
780 -73 0
-780 73 0
781 -74 0
-781 74 0
782 -75 0
-782 75 0
783 -78 0
-783 78 0
-735 -79 0
735 79 0
784 -80 0
-784 80 0
785 -81 0
-785 81 0
786 -82 0
-786 82 0
787 -83 0
-787 83 0
788 -84 0
-788 84 0
789 -85 0
-789 85 0
790 -86 0
-790 86 0
791 -87 0
-791 87 0
792 -88 0
-792 88 0
793 -89 0
-793 89 0
794 -90 0
-794 90 0
795 -91 0
-795 91 0
796 -92 0
-796 92 0
797 -93 0
-797 93 0
798 -94 0
-798 94 0
799 -95 0
-799 95 0
800 -96 0
-800 96 0
801 -97 0
-801 97 0
802 -98 0
-802 98 0
803 -99 0
-803 99 0
804 -100 0
-804 100 0
805 -101 0
-805 101 0
806 -102 0
-806 102 0
807 -103 0
-807 103 0
808 -104 0
-808 104 0
809 -105 0
-809 105 0
810 -106 0
-810 106 0
811 -107 0
-811 107 0
812 -108 0
-812 108 0
813 -109 0
-813 109 0
814 -110 0
-814 110 0
815 -111 0
-815 111 0
816 -112 0
-816 112 0
817 -113 0
-817 113 0
818 -114 0
-818 114 0
819 -115 0
-819 115 0
820 -116 0
-820 116 0
821 -117 0
-821 117 0
822 -118 0
-822 118 0
823 -119 0
-823 119 0
824 -120 0
-824 120 0
825 -121 0
-825 121 0
826 -122 0
-826 122 0
827 -124 0
-827 124 0
828 -125 0
-828 125 0
829 -126 0
-829 126 0
830 -127 0
-830 127 0
831 -128 0
-831 128 0
832 -129 0
-832 129 0
833 -130 0
-833 130 0
834 -131 0
-834 131 0
835 -132 0
-835 132 0
836 -133 0
-836 133 0
-837 -134 0
837 134 0
838 -135 0
-838 135 0
839 -136 0
-839 136 0
840 -137 0
-840 137 0
841 -138 0
-841 138 0
842 -139 0
-842 139 0
843 -140 0
-843 140 0
844 -141 0
-844 141 0
845 -142 0
-845 142 0
846 -143 0
-846 143 0
847 -144 0
-847 144 0
848 -145 0
-848 145 0
849 -146 0
-849 146 0
850 -147 0
-850 147 0
851 -148 0
-851 148 0
852 -149 0
-852 149 0
853 -150 0
-853 150 0
854 -151 0
-854 151 0
855 -152 0
-855 152 0
856 -153 0
-856 153 0
857 -154 0
-857 154 0
858 -155 0
-858 155 0
859 -156 0
-859 156 0
860 -157 0
-860 157 0
861 -158 0
-861 158 0
862 -159 0
-862 159 0
863 -160 0
-863 160 0
864 -161 0
-864 161 0
865 -162 0
-865 162 0
866 -163 0
-866 163 0
867 -164 0
-867 164 0
868 -165 0
-868 165 0
869 -166 0
-869 166 0
870 -167 0
-870 167 0
871 -168 0
-871 168 0
872 -169 0
-872 169 0
873 -170 0
-873 170 0
874 -171 0
-874 171 0
875 -172 0
-875 172 0
876 -173 0
-876 173 0
877 -174 0
-877 174 0
878 -175 0
-878 175 0
879 -176 0
-879 176 0
880 -177 0
-880 177 0
881 -178 0
-881 178 0
882 -179 0
-882 179 0
883 -180 0
-883 180 0
884 -181 0
-884 181 0
885 -182 0
-885 182 0
886 -183 0
-886 183 0
887 -184 0
-887 184 0
888 -185 0
-888 185 0
889 -186 0
-889 186 0
-735 -187 0
735 187 0
890 -188 0
-890 188 0
-735 -189 0
735 189 0
891 -190 0
-891 190 0
892 -191 0
-892 191 0
893 -192 0
-893 192 0
894 -193 0
-894 193 0
895 -194 0
-895 194 0
896 -195 0
-896 195 0
897 -196 0
-897 196 0
898 -197 0
-898 197 0
899 -198 0
-899 198 0
900 -199 0
-900 199 0
901 -200 0
-901 200 0
-735 -201 0
735 201 0
735 -202 0
-735 202 0
735 -203 0
-735 203 0
735 -204 0
-735 204 0
-29 -23 0
-29 11 0
29 23 -11 0
-30 23 0
-30 -11 0
30 -23 11 0
-31 -29 0
-31 -30 0
31 29 30 0
-32 -24 0
-32 12 0
32 24 -12 0
-33 24 0
-33 -12 0
33 -24 12 0
-34 -32 0
-34 -33 0
34 32 33 0
-35 31 0
-35 34 0
35 -31 -34 0
-36 -25 0
-36 13 0
36 25 -13 0
-37 25 0
-37 -13 0
37 -25 13 0
-38 -36 0
-38 -37 0
38 36 37 0
-39 -26 0
-39 14 0
39 26 -14 0
-40 26 0
-40 -14 0
40 -26 14 0
-41 -39 0
-41 -40 0
41 39 40 0
-42 38 0
-42 41 0
42 -38 -41 0
-43 35 0
-43 42 0
43 -35 -42 0
-44 -15 0
-44 3 0
44 15 -3 0
-45 15 0
-45 -3 0
45 -15 3 0
-46 -44 0
-46 -45 0
46 44 45 0
-47 -16 0
-47 4 0
47 16 -4 0
-48 16 0
-48 -4 0
48 -16 4 0
-49 -47 0
-49 -48 0
49 47 48 0
-50 46 0
-50 49 0
50 -46 -49 0
-51 -17 0
-51 5 0
51 17 -5 0
-52 17 0
-52 -5 0
52 -17 5 0
-53 -51 0
-53 -52 0
53 51 52 0
-54 -18 0
-54 6 0
54 18 -6 0
-55 18 0
-55 -6 0
55 -18 6 0
-56 -54 0
-56 -55 0
56 54 55 0
-57 53 0
-57 56 0
57 -53 -56 0
-58 50 0
-58 57 0
58 -50 -57 0
-59 -19 0
-59 7 0
59 19 -7 0
-60 19 0
-60 -7 0
60 -19 7 0
-61 -59 0
-61 -60 0
61 59 60 0
-62 -20 0
-62 8 0
62 20 -8 0
-63 20 0
-63 -8 0
63 -20 8 0
-64 -62 0
-64 -63 0
64 62 63 0
-65 61 0
-65 64 0
65 -61 -64 0
-66 -21 0
-66 9 0
66 21 -9 0
-67 21 0
-67 -9 0
67 -21 9 0
-68 -66 0
-68 -67 0
68 66 67 0
-69 -22 0
-69 10 0
69 22 -10 0
-70 22 0
-70 -10 0
70 -22 10 0
-71 -69 0
-71 -70 0
71 69 70 0
-72 68 0
-72 71 0
72 -68 -71 0
-73 65 0
-73 72 0
73 -65 -72 0
-74 58 0
-74 73 0
74 -58 -73 0
-75 43 0
-75 74 0
75 -43 -74 0
-76 28 0
-76 -27 0
76 -28 27 0
-77 -28 0
-77 27 0
77 28 -27 0
-78 -76 0
-78 -77 0
78 76 77 0
-79 75 0
-79 -78 0
79 -75 78 0
-80 11 0
-80 3 0
80 -11 -3 0
-81 5 0
-81 3 0
81 -5 -3 0
-82 4 0
-82 81 0
82 -4 -81 0
-83 6 0
-83 3 0
83 -6 -3 0
-84 82 0
-84 83 0
84 -82 -83 0
-85 7 0
-85 3 0
85 -7 -3 0
-86 84 0
-86 85 0
86 -84 -85 0
-87 8 0
-87 3 0
87 -8 -3 0
-88 86 0
-88 87 0
88 -86 -87 0
-89 9 0
-89 3 0
89 -9 -3 0
-90 88 0
-90 89 0
90 -88 -89 0
-91 10 0
-91 3 0
91 -10 -3 0
-92 90 0
-92 91 0
92 -90 -91 0
-93 -1 0
-93 92 0
93 1 -92 0
-94 -80 0
-94 93 0
94 80 -93 0
-95 80 0
-95 -93 0
95 -80 93 0
-96 -94 0
-96 -95 0
96 94 95 0
-97 -23 0
-97 -96 0
97 23 96 0
-98 23 0
-98 96 0
98 -23 -96 0
-99 -97 0
-99 -98 0
99 97 98 0
-100 12 0
-100 3 0
100 -12 -3 0
-101 92 0
-101 80 0
101 -92 -80 0
-102 -1 0
-102 101 0
102 1 -101 0
-103 -100 0
-103 102 0
103 100 -102 0
-104 100 0
-104 -102 0
104 -100 102 0
-105 -103 0
-105 -104 0
105 103 104 0
-106 -24 0
-106 -105 0
106 24 105 0
-107 24 0
-107 105 0
107 -24 -105 0
-108 -106 0
-108 -107 0
108 106 107 0
-109 99 0
-109 108 0
109 -99 -108 0
-110 13 0
-110 3 0
110 -13 -3 0
-111 101 0
-111 100 0
111 -101 -100 0
-112 -1 0
-112 111 0
112 1 -111 0
-113 -110 0
-113 112 0
113 110 -112 0
-114 110 0
-114 -112 0
114 -110 112 0
-115 -113 0
-115 -114 0
115 113 114 0
-116 -25 0
-116 -115 0
116 25 115 0
-117 25 0
-117 115 0
117 -25 -115 0
-118 -116 0
-118 -117 0
118 116 117 0
-119 14 0
-119 3 0
119 -14 -3 0
-120 111 0
-120 110 0
120 -111 -110 0
-121 -1 0
-121 120 0
121 1 -120 0
-122 -119 0
-122 -121 0
122 119 121 0
-123 -2 0
-123 -119 0
123 2 119 0
-124 121 0
-124 -123 0
124 -121 123 0
-125 -122 0
-125 -124 0
125 122 124 0
-126 -26 0
-126 125 0
126 26 -125 0
-127 26 0
-127 -125 0
127 -26 125 0
-128 -126 0
-128 -127 0
128 126 127 0
-129 118 0
-129 128 0
129 -118 -128 0
-130 109 0
-130 129 0
130 -109 -129 0
-131 4 0
-131 3 0
131 -4 -3 0
-132 -1 0
-132 131 0
132 1 -131 0
-133 1 0
-133 -131 0
133 -1 131 0
134 -132 0
134 -133 0
-134 132 133 0
-135 -16 0
-135 -134 0
135 16 134 0
-136 16 0
-136 134 0
136 -16 -134 0
-137 -135 0
-137 -136 0
137 135 136 0
-138 15 0
-138 137 0
138 -15 -137 0
-139 -81 0
-139 132 0
139 81 -132 0
-140 81 0
-140 -132 0
140 -81 132 0
-141 -139 0
-141 -140 0
141 139 140 0
-142 -17 0
-142 -141 0
142 17 141 0
-143 17 0
-143 141 0
143 -17 -141 0
-144 -142 0
-144 -143 0
144 142 143 0
-145 -1 0
-145 82 0
145 1 -82 0
-146 -83 0
-146 145 0
146 83 -145 0
-147 83 0
-147 -145 0
147 -83 145 0
-148 -146 0
-148 -147 0
148 146 147 0
-149 -18 0
-149 -148 0
149 18 148 0
-150 18 0
-150 148 0
150 -18 -148 0
-151 -149 0
-151 -150 0
151 149 150 0
-152 144 0
-152 151 0
152 -144 -151 0
-153 138 0
-153 152 0
153 -138 -152 0
-154 -1 0
-154 84 0
154 1 -84 0
-155 -85 0
-155 154 0
155 85 -154 0
-156 85 0
-156 -154 0
156 -85 154 0
-157 -155 0
-157 -156 0
157 155 156 0
-158 -19 0
-158 -157 0
158 19 157 0
-159 19 0
-159 157 0
159 -19 -157 0
-160 -158 0
-160 -159 0
160 158 159 0
-161 -1 0
-161 86 0
161 1 -86 0
-162 -87 0
-162 161 0
162 87 -161 0
-163 87 0
-163 -161 0
163 -87 161 0
-164 -162 0
-164 -163 0
164 162 163 0
-165 -20 0
-165 -164 0
165 20 164 0
-166 20 0
-166 164 0
166 -20 -164 0
-167 -165 0
-167 -166 0
167 165 166 0
-168 160 0
-168 167 0
168 -160 -167 0
-169 -1 0
-169 88 0
169 1 -88 0
-170 -89 0
-170 169 0
170 89 -169 0
-171 89 0
-171 -169 0
171 -89 169 0
-172 -170 0
-172 -171 0
172 170 171 0
-173 -21 0
-173 -172 0
173 21 172 0
-174 21 0
-174 172 0
174 -21 -172 0
-175 -173 0
-175 -174 0
175 173 174 0
-176 -1 0
-176 90 0
176 1 -90 0
-177 -91 0
-177 176 0
177 91 -176 0
-178 91 0
-178 -176 0
178 -91 176 0
-179 -177 0
-179 -178 0
179 177 178 0
-180 -22 0
-180 -179 0
180 22 179 0
-181 22 0
-181 179 0
181 -22 -179 0
-182 -180 0
-182 -181 0
182 180 181 0
-183 175 0
-183 182 0
183 -175 -182 0
-184 168 0
-184 183 0
184 -168 -183 0
-185 153 0
-185 184 0
185 -153 -184 0
-186 130 0
-186 185 0
186 -130 -185 0
-187 186 0
-187 77 0
187 -186 -77 0
-188 120 0
-188 119 0
188 -120 -119 0
-189 27 0
-189 188 0
189 -27 -188 0
-190 -12 0
-190 -11 0
190 12 11 0
-191 -14 0
-191 -13 0
191 14 13 0
-192 190 0
-192 191 0
192 -190 -191 0
-193 -4 0
-193 -3 0
193 4 3 0
-194 -6 0
-194 -5 0
194 6 5 0
-195 193 0
-195 194 0
195 -193 -194 0
-196 -8 0
-196 -7 0
196 8 7 0
-197 -10 0
-197 -9 0
197 10 9 0
-198 196 0
-198 197 0
198 -196 -197 0
-199 195 0
-199 198 0
199 -195 -198 0
-200 192 0
-200 199 0
200 -192 -199 0
-201 -27 0
-201 200 0
201 27 -200 0
-202 -189 0
-202 -201 0
202 189 201 0
-203 -187 0
-203 202 0
203 187 -202 0
-204 -79 0
-204 203 0
204 79 -203 0
204 0
735 0
11 -736 0
-23 -736 0
-11 23 736 0
-11 -737 0
23 -737 0
11 -23 737 0
-29 -738 0
-30 -738 0
29 30 738 0
12 -739 0
-24 -739 0
-12 24 739 0
-12 -740 0
24 -740 0
12 -24 740 0
-32 -741 0
-33 -741 0
32 33 741 0
31 -742 0
34 -742 0
-31 -34 742 0
13 -743 0
-25 -743 0
-13 25 743 0
-13 -744 0
25 -744 0
13 -25 744 0
-36 -745 0
-37 -745 0
36 37 745 0
14 -746 0
-26 -746 0
-14 26 746 0
-14 -747 0
26 -747 0
14 -26 747 0
-39 -748 0
-40 -748 0
39 40 748 0
38 -749 0
41 -749 0
-38 -41 749 0
35 -750 0
42 -750 0
-35 -42 750 0
3 -751 0
-15 -751 0
-3 15 751 0
-3 -752 0
15 -752 0
3 -15 752 0
-44 -753 0
-45 -753 0
44 45 753 0
4 -754 0
-16 -754 0
-4 16 754 0
-4 -755 0
16 -755 0
4 -16 755 0
-47 -756 0
-48 -756 0
47 48 756 0
46 -757 0
49 -757 0
-46 -49 757 0
5 -758 0
-17 -758 0
-5 17 758 0
-5 -759 0
17 -759 0
5 -17 759 0
-51 -760 0
-52 -760 0
51 52 760 0
6 -761 0
-18 -761 0
-6 18 761 0
-6 -762 0
18 -762 0
6 -18 762 0
-54 -763 0
-55 -763 0
54 55 763 0
53 -764 0
56 -764 0
-53 -56 764 0
50 -765 0
57 -765 0
-50 -57 765 0
7 -766 0
-19 -766 0
-7 19 766 0
-7 -767 0
19 -767 0
7 -19 767 0
-59 -768 0
-60 -768 0
59 60 768 0
8 -769 0
-20 -769 0
-8 20 769 0
-8 -770 0
20 -770 0
8 -20 770 0
-62 -771 0
-63 -771 0
62 63 771 0
61 -772 0
64 -772 0
-61 -64 772 0
9 -773 0
-21 -773 0
-9 21 773 0
-9 -774 0
21 -774 0
9 -21 774 0
-66 -775 0
-67 -775 0
66 67 775 0
10 -776 0
-22 -776 0
-10 22 776 0
-10 -777 0
22 -777 0
10 -22 777 0
-69 -778 0
-70 -778 0
69 70 778 0
68 -779 0
71 -779 0
-68 -71 779 0
65 -780 0
72 -780 0
-65 -72 780 0
58 -781 0
73 -781 0
-58 -73 781 0
43 -782 0
74 -782 0
-43 -74 782 0
-76 -783 0
-77 -783 0
76 77 783 0
3 -784 0
11 -784 0
-3 -11 784 0
3 -785 0
5 -785 0
-3 -5 785 0
4 -786 0
81 -786 0
-4 -81 786 0
3 -787 0
6 -787 0
-3 -6 787 0
82 -788 0
83 -788 0
-82 -83 788 0
3 -789 0
7 -789 0
-3 -7 789 0
84 -790 0
85 -790 0
-84 -85 790 0
3 -791 0
8 -791 0
-3 -8 791 0
86 -792 0
87 -792 0
-86 -87 792 0
3 -793 0
9 -793 0
-3 -9 793 0
88 -794 0
89 -794 0
-88 -89 794 0
3 -795 0
10 -795 0
-3 -10 795 0
90 -796 0
91 -796 0
-90 -91 796 0
-1 -797 0
92 -797 0
1 -92 797 0
-80 -798 0
93 -798 0
80 -93 798 0
80 -799 0
-93 -799 0
-80 93 799 0
-94 -800 0
-95 -800 0
94 95 800 0
-23 -801 0
-96 -801 0
23 96 801 0
23 -802 0
96 -802 0
-23 -96 802 0
-97 -803 0
-98 -803 0
97 98 803 0
3 -804 0
12 -804 0
-3 -12 804 0
80 -805 0
92 -805 0
-80 -92 805 0
-1 -806 0
101 -806 0
1 -101 806 0
-100 -807 0
102 -807 0
100 -102 807 0
100 -808 0
-102 -808 0
-100 102 808 0
-103 -809 0
-104 -809 0
103 104 809 0
-24 -810 0
-105 -810 0
24 105 810 0
24 -811 0
105 -811 0
-24 -105 811 0
-106 -812 0
-107 -812 0
106 107 812 0
99 -813 0
108 -813 0
-99 -108 813 0
3 -814 0
13 -814 0
-3 -13 814 0
100 -815 0
101 -815 0
-100 -101 815 0
-1 -816 0
111 -816 0
1 -111 816 0
-110 -817 0
112 -817 0
110 -112 817 0
110 -818 0
-112 -818 0
-110 112 818 0
-113 -819 0
-114 -819 0
113 114 819 0
-25 -820 0
-115 -820 0
25 115 820 0
25 -821 0
115 -821 0
-25 -115 821 0
-116 -822 0
-117 -822 0
116 117 822 0
3 -823 0
14 -823 0
-3 -14 823 0
110 -824 0
111 -824 0
-110 -111 824 0
-1 -825 0
120 -825 0
1 -120 825 0
-119 -826 0
-121 -826 0
119 121 826 0
121 -827 0
-123 -827 0
-121 123 827 0
-122 -828 0
-124 -828 0
122 124 828 0
-26 -829 0
125 -829 0
26 -125 829 0
26 -830 0
-125 -830 0
-26 125 830 0
-126 -831 0
-127 -831 0
126 127 831 0
118 -832 0
128 -832 0
-118 -128 832 0
109 -833 0
129 -833 0
-109 -129 833 0
3 -834 0
4 -834 0
-3 -4 834 0
-1 -835 0
131 -835 0
1 -131 835 0
1 -836 0
-131 -836 0
-1 131 836 0
-132 -837 0
-133 -837 0
132 133 837 0
-16 -838 0
-134 -838 0
16 134 838 0
16 -839 0
134 -839 0
-16 -134 839 0
-135 -840 0
-136 -840 0
135 136 840 0
15 -841 0
137 -841 0
-15 -137 841 0
-81 -842 0
132 -842 0
81 -132 842 0
81 -843 0
-132 -843 0
-81 132 843 0
-139 -844 0
-140 -844 0
139 140 844 0
-17 -845 0
-141 -845 0
17 141 845 0
17 -846 0
141 -846 0
-17 -141 846 0
-142 -847 0
-143 -847 0
142 143 847 0
-1 -848 0
82 -848 0
1 -82 848 0
-83 -849 0
145 -849 0
83 -145 849 0
83 -850 0
-145 -850 0
-83 145 850 0
-146 -851 0
-147 -851 0
146 147 851 0
-18 -852 0
-148 -852 0
18 148 852 0
18 -853 0
148 -853 0
-18 -148 853 0
-149 -854 0
-150 -854 0
149 150 854 0
144 -855 0
151 -855 0
-144 -151 855 0
138 -856 0
152 -856 0
-138 -152 856 0
-1 -857 0
84 -857 0
1 -84 857 0
-85 -858 0
154 -858 0
85 -154 858 0
85 -859 0
-154 -859 0
-85 154 859 0
-155 -860 0
-156 -860 0
155 156 860 0
-19 -861 0
-157 -861 0
19 157 861 0
19 -862 0
157 -862 0
-19 -157 862 0
-158 -863 0
-159 -863 0
158 159 863 0
-1 -864 0
86 -864 0
1 -86 864 0
-87 -865 0
161 -865 0
87 -161 865 0
87 -866 0
-161 -866 0
-87 161 866 0
-162 -867 0
-163 -867 0
162 163 867 0
-20 -868 0
-164 -868 0
20 164 868 0
20 -869 0
164 -869 0
-20 -164 869 0
-165 -870 0
-166 -870 0
165 166 870 0
160 -871 0
167 -871 0
-160 -167 871 0
-1 -872 0
88 -872 0
1 -88 872 0
-89 -873 0
169 -873 0
89 -169 873 0
89 -874 0
-169 -874 0
-89 169 874 0
-170 -875 0
-171 -875 0
170 171 875 0
-21 -876 0
-172 -876 0
21 172 876 0
21 -877 0
172 -877 0
-21 -172 877 0
-173 -878 0
-174 -878 0
173 174 878 0
-1 -879 0
90 -879 0
1 -90 879 0
-91 -880 0
176 -880 0
91 -176 880 0
91 -881 0
-176 -881 0
-91 176 881 0
-177 -882 0
-178 -882 0
177 178 882 0
-22 -883 0
-179 -883 0
22 179 883 0
22 -884 0
179 -884 0
-22 -179 884 0
-180 -885 0
-181 -885 0
180 181 885 0
175 -886 0
182 -886 0
-175 -182 886 0
168 -887 0
183 -887 0
-168 -183 887 0
153 -888 0
184 -888 0
-153 -184 888 0
130 -889 0
185 -889 0
-130 -185 889 0
119 -890 0
120 -890 0
-119 -120 890 0
-11 -891 0
-12 -891 0
11 12 891 0
-13 -892 0
-14 -892 0
13 14 892 0
190 -893 0
191 -893 0
-190 -191 893 0
-3 -894 0
-4 -894 0
3 4 894 0
-5 -895 0
-6 -895 0
5 6 895 0
193 -896 0
194 -896 0
-193 -194 896 0
-7 -897 0
-8 -897 0
7 8 897 0
-9 -898 0
-10 -898 0
9 10 898 0
196 -899 0
197 -899 0
-196 -197 899 0
195 -900 0
198 -900 0
-195 -198 900 0
192 -901 0
199 -901 0
-192 -199 901 0
